ilp_joint_2/output/deposition_ilp.lp
Maximize
  0.0751652202018608 Z_70_1_0 + 0.00855247716137292 Z_70_1_1
   + 0.00297514932914655 Z_70_1_2 + 0.333039926923845 Z_70_1_3
   + 0.00284071907669259 Z_70_2_0 + 0.00531718068089809 Z_70_2_1
   + 0.4283190842843246 Z_70_2_2 + 0.0128260086383004 Z_70_2_3
Subject To
 constraint1_701: Z_70_1_0 + Z_70_1_1 + Z_70_1_2 + Z_70_1_3 <= 1
 constraint1_702: Z_70_2_0 + Z_70_2_1 + Z_70_2_2 + Z_70_2_3 <= 1
 constraint2_700: Z_70_1_0 + Z_70_2_0 <= 1
 constraint2_701: Z_70_1_1 + Z_70_2_1 <= 1
 constraint2_702: Z_70_1_2 + Z_70_2_2 <= 1
 constraint2_703: Z_70_1_3 + Z_70_2_3 <= 1
Bounds
Binaries
 Z_70_1_0 Z_70_1_1 Z_70_1_2 Z_70_1_3 Z_70_2_0 Z_70_2_1 Z_70_2_2 Z_70_2_3
End
