ilp_joint_2/output/deposition_ilp.sol
# Solution for model deposition_srl_ilp
# Objective value = 7.6135901120816962e-01
Z_70_1_0 0
Z_70_1_1 0
Z_70_1_2 0
Z_70_1_3 1
Z_70_2_0 0
Z_70_2_1 0
Z_70_2_2 1
Z_70_2_3 0
